c parity= 0 1 1 1 1 0 1 0 0 1 0 0 0 0 1 0 0 0 0 0 0 0 0 0 0 0 1 1 1 1 1 1 
c e= 0.25
p cnf 96 65
x -2 3 4 6 7 8 12 13 14 15 19 23 24 25 26 28 29 32 -33 0
x -4 8 10 11 12 13 14 15 16 17 20 21 22 23 24 25 26 27 29 30 -34 0
x -1 3 4 5 6 7 8 12 13 14 15 16 17 18 19 20 21 23 24 25 27 30 31 -35 0
x -1 2 6 7 8 14 16 20 21 26 29 30 31 32 -36 0
x -9 10 11 12 14 15 17 19 20 21 28 29 30 32 -37 0
x 1 2 5 6 8 9 11 12 13 17 18 20 24 25 30 32 -38 0
x 3 6 8 10 11 12 15 17 19 21 23 24 25 26 27 28 30 31 -39 0
x 1 2 4 5 7 8 9 11 12 13 15 17 18 19 20 23 27 28 30 31 -40 0
x 1 3 5 8 9 10 11 12 18 23 24 25 26 27 30 -41 0
x -1 2 3 4 5 6 7 9 11 12 13 17 18 19 21 22 23 24 25 27 31 32 -42 0
x 1 3 6 7 10 16 19 21 22 23 26 27 28 31 32 -43 0
x 1 3 6 8 9 13 18 19 21 23 25 27 29 -44 0
x -1 2 4 6 7 10 11 14 15 17 18 20 25 26 27 28 29 31 32 -45 0
x -3 4 14 15 18 19 24 25 26 27 28 30 31 32 -46 0
x 1 3 6 8 9 10 15 16 18 19 20 22 24 25 26 27 31 -47 0
x 3 5 6 7 9 10 11 12 13 18 20 22 23 24 25 26 27 28 29 31 32 -48 0
x 2 3 7 8 9 10 11 12 13 15 16 17 22 24 28 29 31 32 -49 0
x 2 4 5 6 10 13 16 17 20 23 24 25 27 28 31 32 -50 0
x 1 3 4 6 9 12 13 14 15 17 18 19 21 22 23 25 26 27 30 32 -51 0
x 3 4 7 13 15 17 21 24 25 26 29 32 -52 0
x 3 4 5 6 7 9 10 11 12 13 17 21 22 23 24 26 28 29 30 31 -53 0
x -5 8 9 10 12 13 14 15 16 17 18 19 20 21 22 24 25 28 29 30 -54 0
x 1 2 4 7 8 10 11 12 13 15 16 18 19 21 23 25 26 27 28 29 30 31 -55 0
x 1 2 7 8 10 13 14 16 17 18 19 20 22 24 25 28 29 31 32 -56 0
x 3 4 5 6 7 8 13 16 17 18 19 20 21 22 24 25 27 -57 0
x 4 6 7 8 9 10 11 14 15 19 20 23 27 30 -58 0
x 6 8 12 13 15 18 19 21 22 24 25 26 30 31 32 -59 0
x 4 5 8 11 12 13 18 19 20 21 22 23 25 26 27 29 32 -60 0
x 5 7 9 11 12 14 15 18 19 24 30 -61 0
x -1 3 7 11 19 26 29 -62 0
x 1 5 7 8 9 10 17 18 19 23 24 26 27 28 29 31 -63 0
x -1 3 4 6 7 10 11 13 14 15 18 22 23 24 27 28 30 32 -64 0
x 1 2 4 8 9 16 18 19 20 23 25 26 29 31 32 -65 0
x -3 4 6 9 18 19 21 23 24 26 28 29 31 32 -66 0
x -1 2 4 8 9 11 16 17 19 20 22 24 25 26 27 31 -67 0
x 3 6 9 11 12 13 15 16 17 18 20 21 22 25 28 30 32 -68 0
x -2 3 4 5 7 8 10 11 12 13 15 17 19 21 24 27 28 32 -69 0
x -3 5 7 8 9 10 15 16 19 21 24 27 28 29 31 -70 0
x 2 5 7 9 11 15 16 17 22 25 27 28 -71 0
x -1 4 7 8 15 17 18 20 24 25 26 27 30 32 -72 0
x 2 4 6 9 11 12 13 14 17 18 23 24 25 26 29 30 31 -73 0
x -3 5 9 10 11 12 13 18 22 23 24 25 26 27 29 30 31 32 -74 0
x -4 6 7 9 12 17 19 20 21 22 23 24 27 29 31 32 -75 0
x 1 4 5 8 9 12 13 16 17 18 21 23 24 25 27 29 32 -76 0
x -1 2 4 6 8 9 11 12 13 16 17 18 19 21 24 25 28 31 -77 0
x 2 4 5 6 10 11 13 14 17 18 19 21 26 29 31 32 -78 0
x -4 5 6 10 11 12 16 20 21 23 24 26 29 -79 0
x -1 2 4 5 6 9 10 16 20 21 26 30 32 -80 0
x -1 2 4 5 6 7 9 10 13 14 15 18 19 21 23 25 27 30 -81 0
x 2 4 5 12 13 16 18 21 22 23 24 28 30 -82 0
x -2 9 10 11 13 14 16 17 20 21 22 23 25 26 30 31 -83 0
x 1 4 5 7 8 9 10 11 13 14 16 18 19 20 21 22 23 25 26 28 30 32 -84 0
x -1 2 3 4 5 7 14 15 16 17 18 19 21 23 26 28 29 -85 0
x 1 2 3 4 5 6 7 8 9 12 13 14 15 16 17 18 22 26 27 28 32 -86 0
x -1 3 4 5 6 8 9 10 11 12 15 17 18 20 25 28 29 32 -87 0
x 1 2 4 5 11 12 13 15 19 20 21 22 24 26 27 29 31 -88 0
x -5 6 7 9 13 17 18 19 20 23 24 27 28 31 -89 0
x -1 3 4 6 10 11 14 15 17 19 21 23 24 27 -90 0
x -1 2 3 4 7 8 13 14 15 16 22 23 24 25 27 -91 0
x -3 5 7 8 9 10 11 12 13 14 16 20 21 22 24 25 27 28 29 30 -92 0
x -2 3 5 6 9 11 12 13 14 17 22 25 26 27 29 -93 0
x 2 4 8 9 13 14 17 18 21 22 24 25 27 -94 0
x 2 3 5 6 9 10 13 14 16 22 24 25 27 30 -95 0
x 1 4 5 6 7 9 10 13 14 15 16 17 18 20 21 25 26 28 29 31 32 -96 0
d 48 33 34 35 36 37 38 39 40 41 42 43 44 45 46 47 48 49 50 51 52 53 54 55 56 57 58 59 60 61 62 63 64 65 66 67 68 69 70 71 72 73 74 75 76 77 78 79 80 81 82 83 84 85 86 87 88 89 90 91 92 93 94 95 96 0
